136777
26,50,68,99,19,42,81,25,45,72,82,100,51,63,32,75,35,103,4,15,61,47,14,74,102,24,76,58,28,27,10,59,66,44,87,1,43,79,91,60,96,78,94,3,105,101,70,18,49,7,53,84,39,37,36,71,54,95,38,104,67,41,11,85,48,73,33,2,62,22,21,17,77,86,46,6,40,56,16,90,64,20,88,69,98,13,31,65,52,5,30,29,55,97,8,106,9,92,23,12,93,89,80,57,83,34
